unsat
(:eliminated-applications 219
 :eliminated-vars         639
 :max-memory              25.11
 :memory                  19.37
 :nlsat-conflicts         36555
 :nlsat-decisions         29240
 :nlsat-learned-added     30767
 :nlsat-learned-deleted   15955
 :nlsat-propagations      296496
 :nlsat-restarts          12
 :nlsat-stages            58173
 :num-allocs              53171164
 :rlimit-count            12280210
 :time                    98.26
 :total-time              98.05)
